
Gurobi 8.1.0 (linux64, Python) logging started Tue Sep 17 06:56:07 2019

Academic license - for non-commercial use only

Gurobi 8.1.0 (linux64, Python) logging started Tue Sep 17 07:20:49 2019

Academic license - for non-commercial use only

Gurobi 8.1.0 (linux64, Python) logging started Tue Sep 17 07:21:50 2019

Academic license - for non-commercial use only

Gurobi 8.1.0 (linux64, Python) logging started Tue Sep 17 08:21:50 2019

Academic license - for non-commercial use only

Gurobi 8.1.0 (linux64, Python) logging started Tue Sep 17 09:21:50 2019

Academic license - for non-commercial use only

Gurobi 8.1.0 (linux64, Python) logging started Tue Sep 17 10:21:49 2019

Academic license - for non-commercial use only

Gurobi 8.1.0 (linux64, Python) logging started Tue Sep 17 11:21:49 2019

Academic license - for non-commercial use only

Gurobi 8.1.0 (linux64, Python) logging started Tue Sep 17 12:21:49 2019

Academic license - for non-commercial use only

Gurobi 8.1.0 (linux64, Python) logging started Tue Sep 17 13:21:48 2019

Academic license - for non-commercial use only

Gurobi 8.1.0 (linux64, Python) logging started Tue Sep 17 13:24:46 2019

Academic license - for non-commercial use only

Gurobi 8.1.0 (linux64, Python) logging started Tue Sep 17 13:27:47 2019

Academic license - for non-commercial use only

Gurobi 8.1.0 (linux64, Python) logging started Tue Sep 17 13:30:51 2019

Academic license - for non-commercial use only

Gurobi 8.1.0 (linux64, Python) logging started Tue Sep 17 13:35:03 2019

Academic license - for non-commercial use only

Gurobi 8.1.0 (linux64, Python) logging started Tue Sep 17 13:39:06 2019

Academic license - for non-commercial use only

Gurobi 8.1.0 (linux64, Python) logging started Tue Sep 17 13:42:22 2019

Academic license - for non-commercial use only

Gurobi 8.1.0 (linux64, Python) logging started Tue Sep 17 13:43:06 2019

Academic license - for non-commercial use only

Gurobi 8.1.0 (linux64, Python) logging started Tue Sep 17 13:43:51 2019

Academic license - for non-commercial use only

Gurobi 8.1.0 (linux64, Python) logging started Tue Sep 17 13:44:38 2019

Academic license - for non-commercial use only

Gurobi 8.1.0 (linux64, Python) logging started Tue Sep 17 13:45:41 2019

Academic license - for non-commercial use only

Gurobi 8.1.0 (linux64, Python) logging started Tue Sep 17 13:46:40 2019

Academic license - for non-commercial use only

Gurobi 8.1.0 (linux64, Python) logging started Tue Sep 17 13:47:43 2019

Academic license - for non-commercial use only

Gurobi 8.1.0 (linux64, Python) logging started Tue Sep 17 13:47:55 2019

Academic license - for non-commercial use only

Gurobi 8.1.0 (linux64, Python) logging started Tue Sep 17 13:48:09 2019

Academic license - for non-commercial use only

Gurobi 8.1.0 (linux64, Python) logging started Tue Sep 17 13:48:22 2019

Academic license - for non-commercial use only

Gurobi 8.1.0 (linux64, Python) logging started Tue Sep 17 13:48:42 2019

Academic license - for non-commercial use only

Gurobi 8.1.0 (linux64, Python) logging started Tue Sep 17 13:49:03 2019

Academic license - for non-commercial use only
